p cnf 10 50
-1 8 4 0
-10 9 -6 0
5 -1 -10 0
6 10 -4 0
8 4 -5 0
4 -10 5 0
-4 9 -1 0
8 9 -3 0
3 1 9 0
-7 6 -8 0
-8 -9 -10 0
6 5 10 0
-8 1 -3 0
2 -3 4 0
-3 5 10 0
7 -9 -1 0
1 -5 2 0
-5 -3 1 0
8 -10 -9 0
4 9 -5 0
6 8 -4 0
-10 -2 -9 0
2 -1 -8 0
4 6 -2 0
-9 -8 -10 0
10 -2 -7 0
5 -10 1 0
-6 8 -2 0
-3 7 -8 0
-1 10 -8 0
-7 -1 -8 0
9 4 7 0
5 10 9 0
6 -4 -8 0
3 6 -7 0
-7 -9 10 0
1 -10 8 0
-5 10 3 0
-8 -7 10 0
10 -9 8 0
9 2 1 0
-4 1 8 0
-1 3 -2 0
-10 2 9 0
7 -1 -10 0
8 -2 7 0
8 -1 5 0
-5 9 7 0
-8 1 -7 0
7 -8 -9 0
